6319
2429
5204
7769
5820
4688
1109
5373
6458
1383
8727
8031
6337
1168
2610
1849
5748
7781
1103
933
2129
710
6985
8938
7307
1406
7533
8407
5387
5725
7961
3722
6662
7800
5877
8328
3569
2822
1880
6911
1634
1032
9740
2306
5980
1373
8321
7401
3192
6444
